Welcome to the CBC MILP Solver 
Version: 2.10.10 
Build Date: Aug  1 2023 

command line - cbc /var/folders/xx/fsz3wvqx27n46ckqdt6dl4gm0000gn/T/c7589a0a075e4d44b51483163e4eb76b-pulp.mps -max -timeMode elapsed -branch -printingOptions all -solution /var/folders/xx/fsz3wvqx27n46ckqdt6dl4gm0000gn/T/c7589a0a075e4d44b51483163e4eb76b-pulp.sol (default strategy 1)
At line 2 NAME          MODEL
At line 3 ROWS
At line 118 COLUMNS
At line 1093 RHS
At line 1207 BOUNDS
At line 1298 ENDATA
Problem MODEL has 113 rows, 90 columns and 793 elements
Coin0008I MODEL read with 0 errors
Option for timeMode changed from cpu to elapsed
Continuous objective value is 35.3333 - 0.00 seconds
Cgl0004I processed model has 111 rows, 89 columns (89 integer (85 of which binary)) and 784 elements
Cutoff increment increased from 1e-05 to 0.9999
Cbc0038I Initial state - 5 integers unsatisfied sum - 2.33333
Cbc0038I Pass   1: suminf.    2.83333 (6) obj. 34.8333 iterations 11
Cbc0038I Pass   2: suminf.    2.08333 (7) obj. 34.9167 iterations 11
Cbc0038I Pass   3: suminf.    1.45833 (7) obj. 34.7917 iterations 8
Cbc0038I Pass   4: suminf.    2.83333 (6) obj. 34.1667 iterations 26
Cbc0038I Pass   5: suminf.    0.33333 (1) obj. 32.3333 iterations 42
Cbc0038I Solution found of 32.3333
Cbc0038I Branch and bound needed to clear up 1 general integers
Cbc0038I Mini branch and bound could not fix general integers
Cbc0038I No solution found this major pass
Cbc0038I Before mini branch and bound, 73 integers at bound fixed and 0 continuous
Cbc0038I Full problem 111 rows 89 columns, reduced to 9 rows 10 columns
Cbc0038I Mini branch and bound did not improve solution (0.01 seconds)
Cbc0038I After 0.01 seconds - Feasibility pump exiting - took 0.00 seconds
Cbc0031I 5 added rows had average density of 65
Cbc0013I At root node, 5 cuts changed objective from 35.333333 to 34 in 100 passes
Cbc0014I Cut generator 0 (Probing) - 1 row cuts average 38.0 elements, 0 column cuts (1 active)  in 0.021 seconds - new frequency is -100
Cbc0014I Cut generator 1 (Gomory) - 958 row cuts average 80.1 elements, 0 column cuts (0 active)  in 0.017 seconds - new frequency is 1
Cbc0014I Cut generator 2 (Knapsack) - 5 row cuts average 23.2 elements, 0 column cuts (0 active)  in 0.006 seconds - new frequency is -100
Cbc0014I Cut generator 3 (Clique) - 0 row cuts average 0.0 elements, 0 column cuts (0 active)  in 0.001 seconds - new frequency is -100
Cbc0014I Cut generator 4 (MixedIntegerRounding2) - 9 row cuts average 58.0 elements, 0 column cuts (0 active)  in 0.007 seconds - new frequency is -100
Cbc0014I Cut generator 5 (FlowCover) - 1 row cuts average 23.0 elements, 0 column cuts (0 active)  in 0.006 seconds - new frequency is -100
Cbc0014I Cut generator 6 (TwoMirCuts) - 43 row cuts average 54.5 elements, 0 column cuts (0 active)  in 0.004 seconds - new frequency is 1
Cbc0010I After 0 nodes, 1 on tree, -1e+50 best solution, best possible 34 (0.12 seconds)
Cbc0016I Integer solution of 32 found by strong branching after 2223 iterations and 7 nodes (0.17 seconds)
Cbc0038I Full problem 111 rows 89 columns, reduced to 45 rows 29 columns
Cbc0016I Integer solution of 33 found by strong branching after 2282 iterations and 9 nodes (0.18 seconds)
Cbc0001I Search completed - best objective 33, took 2308 iterations and 10 nodes (0.18 seconds)
Cbc0032I Strong branching done 312 times (5237 iterations), fathomed 1 nodes and fixed 6 variables
Cbc0035I Maximum depth 7, 18 variables fixed on reduced cost
Cuts at root node changed objective from 35.3333 to 34
Probing was tried 100 times and created 1 cuts of which 1 were active after adding rounds of cuts (0.021 seconds)
Gomory was tried 116 times and created 981 cuts of which 0 were active after adding rounds of cuts (0.018 seconds)
Knapsack was tried 100 times and created 5 cuts of which 0 were active after adding rounds of cuts (0.006 seconds)
Clique was tried 100 times and created 0 cuts of which 0 were active after adding rounds of cuts (0.001 seconds)
MixedIntegerRounding2 was tried 100 times and created 9 cuts of which 0 were active after adding rounds of cuts (0.007 seconds)
FlowCover was tried 100 times and created 1 cuts of which 0 were active after adding rounds of cuts (0.006 seconds)
TwoMirCuts was tried 116 times and created 110 cuts of which 0 were active after adding rounds of cuts (0.007 seconds)
ZeroHalf was tried 1 times and created 0 cuts of which 0 were active after adding rounds of cuts (0.000 seconds)

Result - Optimal solution found

Objective value:                33.00000000
Enumerated nodes:               10
Total iterations:               2308
Time (CPU seconds):             0.17
Time (Wallclock seconds):       0.18

Option for printingOptions changed from normal to all
Total time (CPU seconds):       0.17   (Wallclock seconds):       0.19

